NAME: random41
TYPE: TSP
DIMENSION: 41
EDGE_WEIGHT_TYPE: EXPLICIT
EDGE_WEIGHT_FORMAT: FULL_MATRIX
EDGE_WEIGHT_SECTION
0 43 111 111 111 111 111 23 111 111 111 111 111 111 111 19 111 111 111 111 111 111 24 111 111 111 111 23 111 111 111 111 111 111 111 111 111 20 111 111 21
43 0 111 111 111 111 111 20 27 111 111 111 111 111 111 111 111 40 111 21 111 111 111 111 111 111 111 111 111 111 111 111 111 111 111 111 111 111 111 111 111
111 111 0 10 111 111 30 111 111 111 111 111 20 111 14 111 111 111 111 111 111 111 111 111 32 111 111 111 7 111 111 111 37 111 111 111 111 111 111 111 111
111 111 10 0 111 111 111 111 111 111 111 111 23 111 12 111 13 111 111 111 16 111 111 111 111 111 111 111 3 111 111 111 111 111 111 111 111 111 111 111 111
111 111 111 111 0 111 111 111 111 17 111 111 111 111 111 111 111 16 111 24 111 111 111 111 111 111 111 111 111 26 111 111 111 111 111 111 111 111 111 32 111
111 111 111 111 111 0 111 111 111 111 111 14 111 111 111 111 111 111 111 111 111 111 111 111 111 111 111 5 111 111 111 111 111 12 15 111 111 9 111 111 111
111 111 30 111 111 111 0 111 111 111 111 111 13 111 111 111 111 111 111 111 111 111 7 111 6 111 111 111 111 111 111 111 111 10 111 111 111 111 111 111 111
23 20 111 111 111 111 111 0 33 111 111 111 111 111 111 111 111 111 111 111 111 111 111 111 111 111 111 111 111 111 111 111 111 111 25 111 111 17 111 111 111
111 27 111 111 111 111 111 33 0 9 111 111 111 111 111 111 111 111 111 13 111 111 111 111 111 111 111 111 111 111 111 111 111 111 23 111 111 111 111 111 111
111 111 111 111 17 111 111 111 9 0 111 111 111 111 111 111 111 111 111 19 111 111 111 111 111 111 33 111 111 111 111 111 111 111 28 35 111 111 111 28 111
111 111 111 111 111 111 111 111 111 111 0 111 111 111 111 111 111 111 15 111 111 111 111 111 111 19 4 111 111 111 111 23 111 111 111 111 111 111 25 14 111
111 111 111 111 111 14 111 111 111 111 111 0 111 111 111 111 111 111 111 111 111 10 111 111 111 111 111 111 111 111 111 111 111 16 9 17 111 111 111 111 111
111 111 20 23 111 111 13 111 111 111 111 111 0 20 111 111 22 111 111 111 111 12 111 111 111 111 111 111 111 111 111 111 111 7 111 111 111 111 111 111 111
111 111 111 111 111 111 111 111 111 111 111 111 20 0 111 111 8 111 111 111 111 12 111 111 111 111 111 111 111 111 111 111 111 111 111 111 2 111 12 111 111
111 111 14 12 111 111 111 111 111 111 111 111 111 111 0 111 111 111 111 111 25 111 111 111 111 45 111 111 10 111 111 111 51 111 111 111 111 111 111 111 111
19 111 111 111 111 111 111 111 111 111 111 111 111 111 111 0 111 111 111 111 111 111 111 111 111 111 111 111 111 111 111 111 13 111 111 111 111 111 111 111 6
111 111 111 13 111 111 111 111 111 111 111 111 22 8 111 111 0 111 111 111 8 111 111 111 111 111 111 111 111 111 111 111 111 111 111 111 111 111 7 111 111
111 40 111 111 16 111 111 111 111 111 111 111 111 111 111 111 111 0 111 22 111 111 111 111 111 111 111 111 111 40 111 111 111 111 111 111 111 111 111 111 111
111 111 111 111 111 111 111 111 111 111 15 111 111 111 111 111 111 111 0 111 111 111 111 24 111 6 111 111 111 111 28 24 111 111 111 111 111 111 111 111 111
111 21 111 111 24 111 111 111 13 19 111 111 111 111 111 111 111 22 111 0 111 111 111 111 111 111 111 111 111 111 111 111 111 111 111 111 111 111 111 111 111
111 111 111 16 111 111 111 111 111 111 111 111 111 111 25 111 8 111 111 111 0 111 111 111 111 25 111 111 111 111 111 111 111 111 111 111 111 111 3 111 111
111 111 111 111 111 111 111 111 111 111 111 10 12 12 111 111 111 111 111 111 111 0 111 111 111 111 111 111 111 111 111 111 111 12 111 13 12 111 111 111 111
24 111 111 111 111 111 7 111 111 111 111 111 111 111 111 111 111 111 111 111 111 111 0 111 10 111 111 4 111 111 111 111 111 10 111 111 111 111 111 111 17
111 111 111 111 111 111 111 111 111 111 111 111 111 111 111 111 111 111 24 111 111 111 111 0 111 111 111 111 111 111 5 5 111 111 111 111 111 111 111 111 111
111 111 32 111 111 111 6 111 111 111 111 111 111 111 111 111 111 111 111 111 111 111 10 111 0 111 111 111 111 111 111 111 12 111 111 111 111 111 111 111 10
111 111 111 111 111 111 111 111 111 111 19 111 111 111 45 111 111 111 6 111 25 111 111 111 111 0 111 111 111 111 34 111 111 111 111 111 111 111 26 111 111
111 111 111 111 111 111 111 111 111 33 4 111 111 111 111 111 111 111 111 111 111 111 111 111 111 111 0 111 111 111 111 111 111 111 111 21 111 111 24 14 111
23 111 111 111 111 5 111 111 111 111 111 111 111 111 111 111 111 111 111 111 111 111 4 111 111 111 111 0 111 111 111 111 111 10 111 111 111 12 111 111 111
111 111 7 3 111 111 111 111 111 111 111 111 111 111 10 111 111 111 111 111 111 111 111 111 111 111 111 111 0 111 111 111 111 111 111 111 111 111 111 111 111
111 111 111 111 26 111 111 111 111 111 111 111 111 111 111 111 111 40 111 111 111 111 111 111 111 111 111 111 111 0 24 20 111 111 111 111 111 111 111 21 111
111 111 111 111 111 111 111 111 111 111 111 111 111 111 111 111 111 111 28 111 111 111 111 5 111 34 111 111 111 24 0 9 111 111 111 111 111 111 111 111 111
111 111 111 111 111 111 111 111 111 111 23 111 111 111 111 111 111 111 24 111 111 111 111 5 111 111 111 111 111 20 9 0 111 111 111 111 111 111 111 17 111
111 111 37 111 111 111 111 111 111 111 111 111 111 111 51 13 111 111 111 111 111 111 111 111 12 111 111 111 111 111 111 111 0 111 111 111 111 111 111 111 9
111 111 111 111 111 12 10 111 111 111 111 16 7 111 111 111 111 111 111 111 111 12 10 111 111 111 111 10 111 111 111 111 111 0 111 111 111 111 111 111 111
111 111 111 111 111 15 111 25 23 28 111 9 111 111 111 111 111 111 111 111 111 111 111 111 111 111 111 111 111 111 111 111 111 111 0 24 111 16 111 111 111
111 111 111 111 111 111 111 111 111 35 111 17 111 111 111 111 111 111 111 111 111 13 111 111 111 111 21 111 111 111 111 111 111 111 24 0 5 111 16 111 111
111 111 111 111 111 111 111 111 111 111 111 111 111 2 111 111 111 111 111 111 111 12 111 111 111 111 111 111 111 111 111 111 111 111 111 5 0 111 13 111 111
20 111 111 111 111 9 111 17 111 111 111 111 111 111 111 111 111 111 111 111 111 111 111 111 111 111 111 12 111 111 111 111 111 111 16 111 111 0 111 111 111
111 111 111 111 111 111 111 111 111 111 25 111 111 12 111 111 7 111 111 111 3 111 111 111 111 26 24 111 111 111 111 111 111 111 111 16 13 111 0 111 111
111 111 111 111 32 111 111 111 111 28 14 111 111 111 111 111 111 111 111 111 111 111 111 111 111 111 14 111 111 21 111 17 111 111 111 111 111 111 111 0 111
21 111 111 111 111 111 111 111 111 111 111 111 111 111 111 6 111 111 111 111 111 111 17 111 10 111 111 111 111 111 111 111 9 111 111 111 111 111 111 111 0
EOF
